13
-1 11 48 29 80 57 19 60 50 87 22 31 91
27 -1 12 42 90 71 78 5 57 4 16 58 52
99 56 -1 66 40 44 20 81 13 70 20 26 71
61 52 35 -1 14 41 77 23 61 56 16 82 17
66 72 50 65 -1 84 76 15 57 37 70 47 62
71 55 56 10 51 -1 77 6 96 47 5 47 21
35 18 56 74 46 21 -1 80 99 59 81 90 61
40 84 78 23 98 43 43 -1 100 53 52 12 28
6 23 64 42 76 28 40 30 -1 3 26 74 19
34 21 6 50 59 60 51 90 29 -1 93 15 13
24 87 4 85 87 71 6 36 79 62 -1 9 72
63 36 89 60 40 53 47 77 43 37 86 -1 77
18 86 50 39 98 82 10 52 35 97 76 87 -1